benchmark/results/graph__10-1000-0.10-03_11/graph__10-1000-0.10-03_11_Quinton_Monolithic.lp
\ This file has been generated by DOcplex
\ ENCODING=ISO-8859-1
\Problem name: Quinton Monolithic

Maximize
 obj: tau
Subject To
 c1: tau - 0.000936329588 m_a0_proc_0 - 0.001169590643 m_a0_proc_1
     - 0.000961538462 m_a0_proc_2 <= 0
 c2: y_a0_proc_0 + y_a0_proc_1 + y_a0_proc_2 - tau = 0
 c3: m_a0_proc_0 + m_a0_proc_1 + m_a0_proc_2 = 1
 c4: y_a0_proc_0 - m_a0_proc_0 <= 0
 c5: y_a0_proc_0 >= 0
 c6: y_a0_proc_1 - m_a0_proc_1 <= 0
 c7: y_a0_proc_1 >= 0
 c8: y_a0_proc_2 - m_a0_proc_2 <= 0
 c9: y_a0_proc_2 >= 0
 c10: tau - 0.002053388090 m_a1_proc_0 - 0.000797448166 m_a1_proc_1
      - 0.001485884101 m_a1_proc_2 <= 0
 c11: y_a1_proc_0 + y_a1_proc_1 + y_a1_proc_2 - tau = 0
 c12: m_a1_proc_0 + m_a1_proc_1 + m_a1_proc_2 = 1
 c13: y_a1_proc_0 - m_a1_proc_0 <= 0
 c14: y_a1_proc_0 >= 0
 c15: y_a1_proc_1 - m_a1_proc_1 <= 0
 c16: y_a1_proc_1 >= 0
 c17: y_a1_proc_2 - m_a1_proc_2 <= 0
 c18: y_a1_proc_2 >= 0
 c19: tau - 0.000960614793 m_a2_proc_0 - 0.000794912560 m_a2_proc_1
      - 0.000920810313 m_a2_proc_2 <= 0
 c20: y_a2_proc_0 + y_a2_proc_1 + y_a2_proc_2 - tau = 0
 c21: m_a2_proc_0 + m_a2_proc_1 + m_a2_proc_2 = 1
 c22: y_a2_proc_0 - m_a2_proc_0 <= 0
 c23: y_a2_proc_0 >= 0
 c24: y_a2_proc_1 - m_a2_proc_1 <= 0
 c25: y_a2_proc_1 >= 0
 c26: y_a2_proc_2 - m_a2_proc_2 <= 0
 c27: y_a2_proc_2 >= 0
 c28: tau - 0.001000000000 m_a3_proc_1 - 0.002232142857 m_a3_proc_2 <= 0
 c29: y_a3_proc_1 + y_a3_proc_2 - tau = 0
 c30: m_a3_proc_1 + m_a3_proc_2 = 1
 c31: y_a3_proc_1 - m_a3_proc_1 <= 0
 c32: y_a3_proc_1 >= 0
 c33: y_a3_proc_2 - m_a3_proc_2 <= 0
 c34: y_a3_proc_2 >= 0
 c35: tau - 0.001145475372 m_a4_proc_0 - 0.000960614793 m_a4_proc_1
      - 0.000940733772 m_a4_proc_2 <= 0
 c36: y_a4_proc_0 + y_a4_proc_1 + y_a4_proc_2 - tau = 0
 c37: m_a4_proc_0 + m_a4_proc_1 + m_a4_proc_2 = 1
 c38: y_a4_proc_0 - m_a4_proc_0 <= 0
 c39: y_a4_proc_0 >= 0
 c40: y_a4_proc_1 - m_a4_proc_1 <= 0
 c41: y_a4_proc_1 >= 0
 c42: y_a4_proc_2 - m_a4_proc_2 <= 0
 c43: y_a4_proc_2 >= 0
 c44: tau - 0.001113585746 m_a5_proc_0 - 0.001356852103 m_a5_proc_1
      - 0.001310615990 m_a5_proc_2 <= 0
 c45: y_a5_proc_0 + y_a5_proc_1 + y_a5_proc_2 - tau = 0
 c46: m_a5_proc_0 + m_a5_proc_1 + m_a5_proc_2 = 1
 c47: y_a5_proc_0 - m_a5_proc_0 <= 0
 c48: y_a5_proc_0 >= 0
 c49: y_a5_proc_1 - m_a5_proc_1 <= 0
 c50: y_a5_proc_1 >= 0
 c51: y_a5_proc_2 - m_a5_proc_2 <= 0
 c52: y_a5_proc_2 >= 0
 c53: tau - 0.001897533207 m_a6_proc_0 - 0.001047120419 m_a6_proc_1
      - 0.001102535832 m_a6_proc_2 <= 0
 c54: y_a6_proc_0 + y_a6_proc_1 + y_a6_proc_2 - tau = 0
 c55: m_a6_proc_0 + m_a6_proc_1 + m_a6_proc_2 = 1
 c56: y_a6_proc_0 - m_a6_proc_0 <= 0
 c57: y_a6_proc_0 >= 0
 c58: y_a6_proc_1 - m_a6_proc_1 <= 0
 c59: y_a6_proc_1 >= 0
 c60: y_a6_proc_2 - m_a6_proc_2 <= 0
 c61: y_a6_proc_2 >= 0
 c62: tau - 0.001424501425 m_a7_proc_0 - 0.001179245283 m_a7_proc_1
      - 0.001351351351 m_a7_proc_2 <= 0
 c63: y_a7_proc_0 + y_a7_proc_1 + y_a7_proc_2 - tau = 0
 c64: m_a7_proc_0 + m_a7_proc_1 + m_a7_proc_2 = 1
 c65: y_a7_proc_0 - m_a7_proc_0 <= 0
 c66: y_a7_proc_0 >= 0
 c67: y_a7_proc_1 - m_a7_proc_1 <= 0
 c68: y_a7_proc_1 >= 0
 c69: y_a7_proc_2 - m_a7_proc_2 <= 0
 c70: y_a7_proc_2 >= 0
 c71: tau - 0.001362397820 m_a8_proc_0 - 0.001267427123 m_a8_proc_1 <= 0
 c72: y_a8_proc_0 + y_a8_proc_1 - tau = 0
 c73: m_a8_proc_0 + m_a8_proc_1 = 1
 c74: y_a8_proc_0 - m_a8_proc_0 <= 0
 c75: y_a8_proc_0 >= 0
 c76: y_a8_proc_1 - m_a8_proc_1 <= 0
 c77: y_a8_proc_1 >= 0
 c78: tau - 0.000838926174 m_a9_proc_0 - 0.002380952381 m_a9_proc_1
      - 0.001739130435 m_a9_proc_2 <= 0
 c79: y_a9_proc_0 + y_a9_proc_1 + y_a9_proc_2 - tau = 0
 c80: m_a9_proc_0 + m_a9_proc_1 + m_a9_proc_2 = 1
 c81: y_a9_proc_0 - m_a9_proc_0 <= 0
 c82: y_a9_proc_0 >= 0
 c83: y_a9_proc_1 - m_a9_proc_1 <= 0
 c84: y_a9_proc_1 >= 0
 c85: y_a9_proc_2 - m_a9_proc_2 <= 0
 c86: y_a9_proc_2 >= 0
 c87: u_a1 - u_a0 - 1068 y_a0_proc_0 - 855 y_a0_proc_1 - 1040 y_a0_proc_2 >= 0
 c88: u_a2 - u_a1 - 487 y_a1_proc_0 - 1254 y_a1_proc_1 - 673 y_a1_proc_2 >= 0
 c89: u_a0 - u_a3 - 1000 y_a3_proc_1 - 448 y_a3_proc_2 >= 0
 c90: u_a4 - u_a2 - 1041 y_a2_proc_0 - 1258 y_a2_proc_1 - 1086 y_a2_proc_2 >= 
      -1
 c91: u_a0 - u_a5 - 898 y_a5_proc_0 - 737 y_a5_proc_1 - 763 y_a5_proc_2 >= -2
 c92: u_a6 - u_a5 - 898 y_a5_proc_0 - 737 y_a5_proc_1 - 763 y_a5_proc_2 >= 0
 c93: u_a7 - u_a6 - 527 y_a6_proc_0 - 955 y_a6_proc_1 - 907 y_a6_proc_2 >= -1
 c94: u_a6 - u_a8 - 734 y_a8_proc_0 - 789 y_a8_proc_1 >= -1
 c95: u_a7 - u_a9 - 1192 y_a9_proc_0 - 420 y_a9_proc_1 - 575 y_a9_proc_2 >= 0
 c96: u_a7 - u_a1 - 487 y_a1_proc_0 - 1254 y_a1_proc_1 - 673 y_a1_proc_2 >= 0
 c97: u_a9 - u_a4 - 873 y_a4_proc_0 - 1041 y_a4_proc_1 - 1063 y_a4_proc_2 >= 0
 c98: u_a2 - u_a4 - 873 y_a4_proc_0 - 1041 y_a4_proc_1 - 1063 y_a4_proc_2 >= 0
 c99: u_a5 - u_a7 - 702 y_a7_proc_0 - 848 y_a7_proc_1 - 740 y_a7_proc_2 >= 0
 c100: u_a8 - u_a6 - 527 y_a6_proc_0 - 955 y_a6_proc_1 - 907 y_a6_proc_2 >= 0
 c101: u_a9 - u_a6 - 527 y_a6_proc_0 - 955 y_a6_proc_1 - 907 y_a6_proc_2 >= -1
 c102: u_a3 - u_a7 - 702 y_a7_proc_0 - 848 y_a7_proc_1 - 740 y_a7_proc_2 >= -1
 c103: u_a5 - u_a9 - 1192 y_a9_proc_0 - 420 y_a9_proc_1 - 575 y_a9_proc_2 >= 0
 c104: u_a1 + K_a0_a1 - 1258 m_a0_proc_2 - 1258 m_a1_proc_2 - u_a0
       - 1040 y_a0_proc_2 >= -2516
 c105: u_a1 + K_a0_a1 - 1258 m_a0_proc_0 - 1258 m_a1_proc_0 - u_a0
       - 1068 y_a0_proc_0 >= -2516
 c106: u_a1 + K_a0_a1 - 1258 m_a0_proc_1 - 1258 m_a1_proc_1 - u_a0
       - 855 y_a0_proc_1 >= -2516
 c107: K_a0_a1 + K_a1_a0 = 1
 c108: u_a0 + K_a1_a0 - 1258 m_a0_proc_2 - 1258 m_a1_proc_2 - u_a1
       - 673 y_a1_proc_2 >= -2516
 c109: u_a0 + K_a1_a0 - 1258 m_a0_proc_0 - 1258 m_a1_proc_0 - u_a1
       - 487 y_a1_proc_0 >= -2516
 c110: u_a0 + K_a1_a0 - 1258 m_a0_proc_1 - 1258 m_a1_proc_1 - u_a1
       - 1254 y_a1_proc_1 >= -2516
 c111: K_a0_a1 + K_a1_a0 = 1
 c112: u_a2 + K_a0_a2 - 1258 m_a0_proc_2 - 1258 m_a2_proc_2 - u_a0
       - 1040 y_a0_proc_2 >= -2516
 c113: u_a2 + K_a0_a2 - 1258 m_a0_proc_0 - 1258 m_a2_proc_0 - u_a0
       - 1068 y_a0_proc_0 >= -2516
 c114: u_a2 + K_a0_a2 - 1258 m_a0_proc_1 - 1258 m_a2_proc_1 - u_a0
       - 855 y_a0_proc_1 >= -2516
 c115: K_a0_a2 + K_a2_a0 = 1
 c116: u_a0 + K_a2_a0 - 1258 m_a0_proc_2 - 1258 m_a2_proc_2 - u_a2
       - 1086 y_a2_proc_2 >= -2516
 c117: u_a0 + K_a2_a0 - 1258 m_a0_proc_0 - 1258 m_a2_proc_0 - u_a2
       - 1041 y_a2_proc_0 >= -2516
 c118: u_a0 + K_a2_a0 - 1258 m_a0_proc_1 - 1258 m_a2_proc_1 - u_a2
       - 1258 y_a2_proc_1 >= -2516
 c119: K_a0_a2 + K_a2_a0 = 1
 c120: u_a3 + K_a0_a3 - 1258 m_a0_proc_2 - 1258 m_a3_proc_2 - u_a0
       - 1040 y_a0_proc_2 >= -2516
 c121: u_a3 + K_a0_a3 - 1258 m_a0_proc_1 - 1258 m_a3_proc_1 - u_a0
       - 855 y_a0_proc_1 >= -2516
 c122: K_a0_a3 + K_a3_a0 = 1
 c123: u_a0 + K_a3_a0 - 1258 m_a0_proc_2 - 1258 m_a3_proc_2 - u_a3
       - 448 y_a3_proc_2 >= -2516
 c124: u_a0 + K_a3_a0 - 1258 m_a0_proc_1 - 1258 m_a3_proc_1 - u_a3
       - 1000 y_a3_proc_1 >= -2516
 c125: K_a0_a3 + K_a3_a0 = 1
 c126: u_a4 + K_a0_a4 - 1258 m_a0_proc_2 - 1258 m_a4_proc_2 - u_a0
       - 1040 y_a0_proc_2 >= -2516
 c127: u_a4 + K_a0_a4 - 1258 m_a0_proc_0 - 1258 m_a4_proc_0 - u_a0
       - 1068 y_a0_proc_0 >= -2516
 c128: u_a4 + K_a0_a4 - 1258 m_a0_proc_1 - 1258 m_a4_proc_1 - u_a0
       - 855 y_a0_proc_1 >= -2516
 c129: K_a0_a4 + K_a4_a0 = 1
 c130: u_a0 + K_a4_a0 - 1258 m_a0_proc_2 - 1258 m_a4_proc_2 - u_a4
       - 1063 y_a4_proc_2 >= -2516
 c131: u_a0 + K_a4_a0 - 1258 m_a0_proc_0 - 1258 m_a4_proc_0 - u_a4
       - 873 y_a4_proc_0 >= -2516
 c132: u_a0 + K_a4_a0 - 1258 m_a0_proc_1 - 1258 m_a4_proc_1 - u_a4
       - 1041 y_a4_proc_1 >= -2516
 c133: K_a0_a4 + K_a4_a0 = 1
 c134: u_a5 + K_a0_a5 - 1258 m_a0_proc_2 - 1258 m_a5_proc_2 - u_a0
       - 1040 y_a0_proc_2 >= -2516
 c135: u_a5 + K_a0_a5 - 1258 m_a0_proc_0 - 1258 m_a5_proc_0 - u_a0
       - 1068 y_a0_proc_0 >= -2516
 c136: u_a5 + K_a0_a5 - 1258 m_a0_proc_1 - 1258 m_a5_proc_1 - u_a0
       - 855 y_a0_proc_1 >= -2516
 c137: K_a0_a5 + K_a5_a0 = 1
 c138: u_a0 + K_a5_a0 - 1258 m_a0_proc_2 - 1258 m_a5_proc_2 - u_a5
       - 763 y_a5_proc_2 >= -2516
 c139: u_a0 + K_a5_a0 - 1258 m_a0_proc_0 - 1258 m_a5_proc_0 - u_a5
       - 898 y_a5_proc_0 >= -2516
 c140: u_a0 + K_a5_a0 - 1258 m_a0_proc_1 - 1258 m_a5_proc_1 - u_a5
       - 737 y_a5_proc_1 >= -2516
 c141: K_a0_a5 + K_a5_a0 = 1
 c142: u_a6 + K_a0_a6 - 1258 m_a0_proc_2 - 1258 m_a6_proc_2 - u_a0
       - 1040 y_a0_proc_2 >= -2516
 c143: u_a6 + K_a0_a6 - 1258 m_a0_proc_0 - 1258 m_a6_proc_0 - u_a0
       - 1068 y_a0_proc_0 >= -2516
 c144: u_a6 + K_a0_a6 - 1258 m_a0_proc_1 - 1258 m_a6_proc_1 - u_a0
       - 855 y_a0_proc_1 >= -2516
 c145: K_a0_a6 + K_a6_a0 = 1
 c146: u_a0 + K_a6_a0 - 1258 m_a0_proc_2 - 1258 m_a6_proc_2 - u_a6
       - 907 y_a6_proc_2 >= -2516
 c147: u_a0 + K_a6_a0 - 1258 m_a0_proc_0 - 1258 m_a6_proc_0 - u_a6
       - 527 y_a6_proc_0 >= -2516
 c148: u_a0 + K_a6_a0 - 1258 m_a0_proc_1 - 1258 m_a6_proc_1 - u_a6
       - 955 y_a6_proc_1 >= -2516
 c149: K_a0_a6 + K_a6_a0 = 1
 c150: u_a7 + K_a0_a7 - 1258 m_a0_proc_2 - 1258 m_a7_proc_2 - u_a0
       - 1040 y_a0_proc_2 >= -2516
 c151: u_a7 + K_a0_a7 - 1258 m_a0_proc_0 - 1258 m_a7_proc_0 - u_a0
       - 1068 y_a0_proc_0 >= -2516
 c152: u_a7 + K_a0_a7 - 1258 m_a0_proc_1 - 1258 m_a7_proc_1 - u_a0
       - 855 y_a0_proc_1 >= -2516
 c153: K_a0_a7 + K_a7_a0 = 1
 c154: u_a0 + K_a7_a0 - 1258 m_a0_proc_2 - 1258 m_a7_proc_2 - u_a7
       - 740 y_a7_proc_2 >= -2516
 c155: u_a0 + K_a7_a0 - 1258 m_a0_proc_0 - 1258 m_a7_proc_0 - u_a7
       - 702 y_a7_proc_0 >= -2516
 c156: u_a0 + K_a7_a0 - 1258 m_a0_proc_1 - 1258 m_a7_proc_1 - u_a7
       - 848 y_a7_proc_1 >= -2516
 c157: K_a0_a7 + K_a7_a0 = 1
 c158: u_a8 + K_a0_a8 - 1258 m_a0_proc_0 - 1258 m_a8_proc_0 - u_a0
       - 1068 y_a0_proc_0 >= -2516
 c159: u_a8 + K_a0_a8 - 1258 m_a0_proc_1 - 1258 m_a8_proc_1 - u_a0
       - 855 y_a0_proc_1 >= -2516
 c160: K_a0_a8 + K_a8_a0 = 1
 c161: u_a0 + K_a8_a0 - 1258 m_a0_proc_0 - 1258 m_a8_proc_0 - u_a8
       - 734 y_a8_proc_0 >= -2516
 c162: u_a0 + K_a8_a0 - 1258 m_a0_proc_1 - 1258 m_a8_proc_1 - u_a8
       - 789 y_a8_proc_1 >= -2516
 c163: K_a0_a8 + K_a8_a0 = 1
 c164: u_a9 + K_a0_a9 - 1258 m_a0_proc_2 - 1258 m_a9_proc_2 - u_a0
       - 1040 y_a0_proc_2 >= -2516
 c165: u_a9 + K_a0_a9 - 1258 m_a0_proc_0 - 1258 m_a9_proc_0 - u_a0
       - 1068 y_a0_proc_0 >= -2516
 c166: u_a9 + K_a0_a9 - 1258 m_a0_proc_1 - 1258 m_a9_proc_1 - u_a0
       - 855 y_a0_proc_1 >= -2516
 c167: K_a0_a9 + K_a9_a0 = 1
 c168: u_a0 + K_a9_a0 - 1258 m_a0_proc_2 - 1258 m_a9_proc_2 - u_a9
       - 575 y_a9_proc_2 >= -2516
 c169: u_a0 + K_a9_a0 - 1258 m_a0_proc_0 - 1258 m_a9_proc_0 - u_a9
       - 1192 y_a9_proc_0 >= -2516
 c170: u_a0 + K_a9_a0 - 1258 m_a0_proc_1 - 1258 m_a9_proc_1 - u_a9
       - 420 y_a9_proc_1 >= -2516
 c171: K_a0_a9 + K_a9_a0 = 1
 c172: u_a2 + K_a1_a2 - 1258 m_a1_proc_2 - 1258 m_a2_proc_2 - u_a1
       - 673 y_a1_proc_2 >= -2516
 c173: u_a2 + K_a1_a2 - 1258 m_a1_proc_0 - 1258 m_a2_proc_0 - u_a1
       - 487 y_a1_proc_0 >= -2516
 c174: u_a2 + K_a1_a2 - 1258 m_a1_proc_1 - 1258 m_a2_proc_1 - u_a1
       - 1254 y_a1_proc_1 >= -2516
 c175: K_a1_a2 + K_a2_a1 = 1
 c176: u_a1 + K_a2_a1 - 1258 m_a1_proc_2 - 1258 m_a2_proc_2 - u_a2
       - 1086 y_a2_proc_2 >= -2516
 c177: u_a1 + K_a2_a1 - 1258 m_a1_proc_0 - 1258 m_a2_proc_0 - u_a2
       - 1041 y_a2_proc_0 >= -2516
 c178: u_a1 + K_a2_a1 - 1258 m_a1_proc_1 - 1258 m_a2_proc_1 - u_a2
       - 1258 y_a2_proc_1 >= -2516
 c179: K_a1_a2 + K_a2_a1 = 1
 c180: u_a3 + K_a1_a3 - 1258 m_a1_proc_2 - 1258 m_a3_proc_2 - u_a1
       - 673 y_a1_proc_2 >= -2516
 c181: u_a3 + K_a1_a3 - 1258 m_a1_proc_1 - 1258 m_a3_proc_1 - u_a1
       - 1254 y_a1_proc_1 >= -2516
 c182: K_a1_a3 + K_a3_a1 = 1
 c183: u_a1 + K_a3_a1 - 1258 m_a1_proc_2 - 1258 m_a3_proc_2 - u_a3
       - 448 y_a3_proc_2 >= -2516
 c184: u_a1 + K_a3_a1 - 1258 m_a1_proc_1 - 1258 m_a3_proc_1 - u_a3
       - 1000 y_a3_proc_1 >= -2516
 c185: K_a1_a3 + K_a3_a1 = 1
 c186: u_a4 + K_a1_a4 - 1258 m_a1_proc_2 - 1258 m_a4_proc_2 - u_a1
       - 673 y_a1_proc_2 >= -2516
 c187: u_a4 + K_a1_a4 - 1258 m_a1_proc_0 - 1258 m_a4_proc_0 - u_a1
       - 487 y_a1_proc_0 >= -2516
 c188: u_a4 + K_a1_a4 - 1258 m_a1_proc_1 - 1258 m_a4_proc_1 - u_a1
       - 1254 y_a1_proc_1 >= -2516
 c189: K_a1_a4 + K_a4_a1 = 1
 c190: u_a1 + K_a4_a1 - 1258 m_a1_proc_2 - 1258 m_a4_proc_2 - u_a4
       - 1063 y_a4_proc_2 >= -2516
 c191: u_a1 + K_a4_a1 - 1258 m_a1_proc_0 - 1258 m_a4_proc_0 - u_a4
       - 873 y_a4_proc_0 >= -2516
 c192: u_a1 + K_a4_a1 - 1258 m_a1_proc_1 - 1258 m_a4_proc_1 - u_a4
       - 1041 y_a4_proc_1 >= -2516
 c193: K_a1_a4 + K_a4_a1 = 1
 c194: u_a5 + K_a1_a5 - 1258 m_a1_proc_2 - 1258 m_a5_proc_2 - u_a1
       - 673 y_a1_proc_2 >= -2516
 c195: u_a5 + K_a1_a5 - 1258 m_a1_proc_0 - 1258 m_a5_proc_0 - u_a1
       - 487 y_a1_proc_0 >= -2516
 c196: u_a5 + K_a1_a5 - 1258 m_a1_proc_1 - 1258 m_a5_proc_1 - u_a1
       - 1254 y_a1_proc_1 >= -2516
 c197: K_a1_a5 + K_a5_a1 = 1
 c198: u_a1 + K_a5_a1 - 1258 m_a1_proc_2 - 1258 m_a5_proc_2 - u_a5
       - 763 y_a5_proc_2 >= -2516
 c199: u_a1 + K_a5_a1 - 1258 m_a1_proc_0 - 1258 m_a5_proc_0 - u_a5
       - 898 y_a5_proc_0 >= -2516
 c200: u_a1 + K_a5_a1 - 1258 m_a1_proc_1 - 1258 m_a5_proc_1 - u_a5
       - 737 y_a5_proc_1 >= -2516
 c201: K_a1_a5 + K_a5_a1 = 1
 c202: u_a6 + K_a1_a6 - 1258 m_a1_proc_2 - 1258 m_a6_proc_2 - u_a1
       - 673 y_a1_proc_2 >= -2516
 c203: u_a6 + K_a1_a6 - 1258 m_a1_proc_0 - 1258 m_a6_proc_0 - u_a1
       - 487 y_a1_proc_0 >= -2516
 c204: u_a6 + K_a1_a6 - 1258 m_a1_proc_1 - 1258 m_a6_proc_1 - u_a1
       - 1254 y_a1_proc_1 >= -2516
 c205: K_a1_a6 + K_a6_a1 = 1
 c206: u_a1 + K_a6_a1 - 1258 m_a1_proc_2 - 1258 m_a6_proc_2 - u_a6
       - 907 y_a6_proc_2 >= -2516
 c207: u_a1 + K_a6_a1 - 1258 m_a1_proc_0 - 1258 m_a6_proc_0 - u_a6
       - 527 y_a6_proc_0 >= -2516
 c208: u_a1 + K_a6_a1 - 1258 m_a1_proc_1 - 1258 m_a6_proc_1 - u_a6
       - 955 y_a6_proc_1 >= -2516
 c209: K_a1_a6 + K_a6_a1 = 1
 c210: u_a7 + K_a1_a7 - 1258 m_a1_proc_2 - 1258 m_a7_proc_2 - u_a1
       - 673 y_a1_proc_2 >= -2516
 c211: u_a7 + K_a1_a7 - 1258 m_a1_proc_0 - 1258 m_a7_proc_0 - u_a1
       - 487 y_a1_proc_0 >= -2516
 c212: u_a7 + K_a1_a7 - 1258 m_a1_proc_1 - 1258 m_a7_proc_1 - u_a1
       - 1254 y_a1_proc_1 >= -2516
 c213: K_a1_a7 + K_a7_a1 = 1
 c214: u_a1 + K_a7_a1 - 1258 m_a1_proc_2 - 1258 m_a7_proc_2 - u_a7
       - 740 y_a7_proc_2 >= -2516
 c215: u_a1 + K_a7_a1 - 1258 m_a1_proc_0 - 1258 m_a7_proc_0 - u_a7
       - 702 y_a7_proc_0 >= -2516
 c216: u_a1 + K_a7_a1 - 1258 m_a1_proc_1 - 1258 m_a7_proc_1 - u_a7
       - 848 y_a7_proc_1 >= -2516
 c217: K_a1_a7 + K_a7_a1 = 1
 c218: u_a8 + K_a1_a8 - 1258 m_a1_proc_0 - 1258 m_a8_proc_0 - u_a1
       - 487 y_a1_proc_0 >= -2516
 c219: u_a8 + K_a1_a8 - 1258 m_a1_proc_1 - 1258 m_a8_proc_1 - u_a1
       - 1254 y_a1_proc_1 >= -2516
 c220: K_a1_a8 + K_a8_a1 = 1
 c221: u_a1 + K_a8_a1 - 1258 m_a1_proc_0 - 1258 m_a8_proc_0 - u_a8
       - 734 y_a8_proc_0 >= -2516
 c222: u_a1 + K_a8_a1 - 1258 m_a1_proc_1 - 1258 m_a8_proc_1 - u_a8
       - 789 y_a8_proc_1 >= -2516
 c223: K_a1_a8 + K_a8_a1 = 1
 c224: u_a9 + K_a1_a9 - 1258 m_a1_proc_2 - 1258 m_a9_proc_2 - u_a1
       - 673 y_a1_proc_2 >= -2516
 c225: u_a9 + K_a1_a9 - 1258 m_a1_proc_0 - 1258 m_a9_proc_0 - u_a1
       - 487 y_a1_proc_0 >= -2516
 c226: u_a9 + K_a1_a9 - 1258 m_a1_proc_1 - 1258 m_a9_proc_1 - u_a1
       - 1254 y_a1_proc_1 >= -2516
 c227: K_a1_a9 + K_a9_a1 = 1
 c228: u_a1 + K_a9_a1 - 1258 m_a1_proc_2 - 1258 m_a9_proc_2 - u_a9
       - 575 y_a9_proc_2 >= -2516
 c229: u_a1 + K_a9_a1 - 1258 m_a1_proc_0 - 1258 m_a9_proc_0 - u_a9
       - 1192 y_a9_proc_0 >= -2516
 c230: u_a1 + K_a9_a1 - 1258 m_a1_proc_1 - 1258 m_a9_proc_1 - u_a9
       - 420 y_a9_proc_1 >= -2516
 c231: K_a1_a9 + K_a9_a1 = 1
 c232: u_a3 + K_a2_a3 - 1258 m_a2_proc_2 - 1258 m_a3_proc_2 - u_a2
       - 1086 y_a2_proc_2 >= -2516
 c233: u_a3 + K_a2_a3 - 1258 m_a2_proc_1 - 1258 m_a3_proc_1 - u_a2
       - 1258 y_a2_proc_1 >= -2516
 c234: K_a2_a3 + K_a3_a2 = 1
 c235: u_a2 + K_a3_a2 - 1258 m_a2_proc_2 - 1258 m_a3_proc_2 - u_a3
       - 448 y_a3_proc_2 >= -2516
 c236: u_a2 + K_a3_a2 - 1258 m_a2_proc_1 - 1258 m_a3_proc_1 - u_a3
       - 1000 y_a3_proc_1 >= -2516
 c237: K_a2_a3 + K_a3_a2 = 1
 c238: u_a4 + K_a2_a4 - 1258 m_a2_proc_2 - 1258 m_a4_proc_2 - u_a2
       - 1086 y_a2_proc_2 >= -2516
 c239: u_a4 + K_a2_a4 - 1258 m_a2_proc_0 - 1258 m_a4_proc_0 - u_a2
       - 1041 y_a2_proc_0 >= -2516
 c240: u_a4 + K_a2_a4 - 1258 m_a2_proc_1 - 1258 m_a4_proc_1 - u_a2
       - 1258 y_a2_proc_1 >= -2516
 c241: K_a2_a4 + K_a4_a2 = 1
 c242: u_a2 + K_a4_a2 - 1258 m_a2_proc_2 - 1258 m_a4_proc_2 - u_a4
       - 1063 y_a4_proc_2 >= -2516
 c243: u_a2 + K_a4_a2 - 1258 m_a2_proc_0 - 1258 m_a4_proc_0 - u_a4
       - 873 y_a4_proc_0 >= -2516
 c244: u_a2 + K_a4_a2 - 1258 m_a2_proc_1 - 1258 m_a4_proc_1 - u_a4
       - 1041 y_a4_proc_1 >= -2516
 c245: K_a2_a4 + K_a4_a2 = 1
 c246: u_a5 + K_a2_a5 - 1258 m_a2_proc_2 - 1258 m_a5_proc_2 - u_a2
       - 1086 y_a2_proc_2 >= -2516
 c247: u_a5 + K_a2_a5 - 1258 m_a2_proc_0 - 1258 m_a5_proc_0 - u_a2
       - 1041 y_a2_proc_0 >= -2516
 c248: u_a5 + K_a2_a5 - 1258 m_a2_proc_1 - 1258 m_a5_proc_1 - u_a2
       - 1258 y_a2_proc_1 >= -2516
 c249: K_a2_a5 + K_a5_a2 = 1
 c250: u_a2 + K_a5_a2 - 1258 m_a2_proc_2 - 1258 m_a5_proc_2 - u_a5
       - 763 y_a5_proc_2 >= -2516
 c251: u_a2 + K_a5_a2 - 1258 m_a2_proc_0 - 1258 m_a5_proc_0 - u_a5
       - 898 y_a5_proc_0 >= -2516
 c252: u_a2 + K_a5_a2 - 1258 m_a2_proc_1 - 1258 m_a5_proc_1 - u_a5
       - 737 y_a5_proc_1 >= -2516
 c253: K_a2_a5 + K_a5_a2 = 1
 c254: u_a6 + K_a2_a6 - 1258 m_a2_proc_2 - 1258 m_a6_proc_2 - u_a2
       - 1086 y_a2_proc_2 >= -2516
 c255: u_a6 + K_a2_a6 - 1258 m_a2_proc_0 - 1258 m_a6_proc_0 - u_a2
       - 1041 y_a2_proc_0 >= -2516
 c256: u_a6 + K_a2_a6 - 1258 m_a2_proc_1 - 1258 m_a6_proc_1 - u_a2
       - 1258 y_a2_proc_1 >= -2516
 c257: K_a2_a6 + K_a6_a2 = 1
 c258: u_a2 + K_a6_a2 - 1258 m_a2_proc_2 - 1258 m_a6_proc_2 - u_a6
       - 907 y_a6_proc_2 >= -2516
 c259: u_a2 + K_a6_a2 - 1258 m_a2_proc_0 - 1258 m_a6_proc_0 - u_a6
       - 527 y_a6_proc_0 >= -2516
 c260: u_a2 + K_a6_a2 - 1258 m_a2_proc_1 - 1258 m_a6_proc_1 - u_a6
       - 955 y_a6_proc_1 >= -2516
 c261: K_a2_a6 + K_a6_a2 = 1
 c262: u_a7 + K_a2_a7 - 1258 m_a2_proc_2 - 1258 m_a7_proc_2 - u_a2
       - 1086 y_a2_proc_2 >= -2516
 c263: u_a7 + K_a2_a7 - 1258 m_a2_proc_0 - 1258 m_a7_proc_0 - u_a2
       - 1041 y_a2_proc_0 >= -2516
 c264: u_a7 + K_a2_a7 - 1258 m_a2_proc_1 - 1258 m_a7_proc_1 - u_a2
       - 1258 y_a2_proc_1 >= -2516
 c265: K_a2_a7 + K_a7_a2 = 1
 c266: u_a2 + K_a7_a2 - 1258 m_a2_proc_2 - 1258 m_a7_proc_2 - u_a7
       - 740 y_a7_proc_2 >= -2516
 c267: u_a2 + K_a7_a2 - 1258 m_a2_proc_0 - 1258 m_a7_proc_0 - u_a7
       - 702 y_a7_proc_0 >= -2516
 c268: u_a2 + K_a7_a2 - 1258 m_a2_proc_1 - 1258 m_a7_proc_1 - u_a7
       - 848 y_a7_proc_1 >= -2516
 c269: K_a2_a7 + K_a7_a2 = 1
 c270: u_a8 + K_a2_a8 - 1258 m_a2_proc_0 - 1258 m_a8_proc_0 - u_a2
       - 1041 y_a2_proc_0 >= -2516
 c271: u_a8 + K_a2_a8 - 1258 m_a2_proc_1 - 1258 m_a8_proc_1 - u_a2
       - 1258 y_a2_proc_1 >= -2516
 c272: K_a2_a8 + K_a8_a2 = 1
 c273: u_a2 + K_a8_a2 - 1258 m_a2_proc_0 - 1258 m_a8_proc_0 - u_a8
       - 734 y_a8_proc_0 >= -2516
 c274: u_a2 + K_a8_a2 - 1258 m_a2_proc_1 - 1258 m_a8_proc_1 - u_a8
       - 789 y_a8_proc_1 >= -2516
 c275: K_a2_a8 + K_a8_a2 = 1
 c276: u_a9 + K_a2_a9 - 1258 m_a2_proc_2 - 1258 m_a9_proc_2 - u_a2
       - 1086 y_a2_proc_2 >= -2516
 c277: u_a9 + K_a2_a9 - 1258 m_a2_proc_0 - 1258 m_a9_proc_0 - u_a2
       - 1041 y_a2_proc_0 >= -2516
 c278: u_a9 + K_a2_a9 - 1258 m_a2_proc_1 - 1258 m_a9_proc_1 - u_a2
       - 1258 y_a2_proc_1 >= -2516
 c279: K_a2_a9 + K_a9_a2 = 1
 c280: u_a2 + K_a9_a2 - 1258 m_a2_proc_2 - 1258 m_a9_proc_2 - u_a9
       - 575 y_a9_proc_2 >= -2516
 c281: u_a2 + K_a9_a2 - 1258 m_a2_proc_0 - 1258 m_a9_proc_0 - u_a9
       - 1192 y_a9_proc_0 >= -2516
 c282: u_a2 + K_a9_a2 - 1258 m_a2_proc_1 - 1258 m_a9_proc_1 - u_a9
       - 420 y_a9_proc_1 >= -2516
 c283: K_a2_a9 + K_a9_a2 = 1
 c284: u_a4 + K_a3_a4 - 1258 m_a3_proc_2 - 1258 m_a4_proc_2 - u_a3
       - 448 y_a3_proc_2 >= -2516
 c285: u_a4 + K_a3_a4 - 1258 m_a3_proc_1 - 1258 m_a4_proc_1 - u_a3
       - 1000 y_a3_proc_1 >= -2516
 c286: K_a3_a4 + K_a4_a3 = 1
 c287: u_a3 + K_a4_a3 - 1258 m_a3_proc_2 - 1258 m_a4_proc_2 - u_a4
       - 1063 y_a4_proc_2 >= -2516
 c288: u_a3 + K_a4_a3 - 1258 m_a3_proc_1 - 1258 m_a4_proc_1 - u_a4
       - 1041 y_a4_proc_1 >= -2516
 c289: K_a3_a4 + K_a4_a3 = 1
 c290: u_a5 + K_a3_a5 - 1258 m_a3_proc_2 - 1258 m_a5_proc_2 - u_a3
       - 448 y_a3_proc_2 >= -2516
 c291: u_a5 + K_a3_a5 - 1258 m_a3_proc_1 - 1258 m_a5_proc_1 - u_a3
       - 1000 y_a3_proc_1 >= -2516
 c292: K_a3_a5 + K_a5_a3 = 1
 c293: u_a3 + K_a5_a3 - 1258 m_a3_proc_2 - 1258 m_a5_proc_2 - u_a5
       - 763 y_a5_proc_2 >= -2516
 c294: u_a3 + K_a5_a3 - 1258 m_a3_proc_1 - 1258 m_a5_proc_1 - u_a5
       - 737 y_a5_proc_1 >= -2516
 c295: K_a3_a5 + K_a5_a3 = 1
 c296: u_a6 + K_a3_a6 - 1258 m_a3_proc_2 - 1258 m_a6_proc_2 - u_a3
       - 448 y_a3_proc_2 >= -2516
 c297: u_a6 + K_a3_a6 - 1258 m_a3_proc_1 - 1258 m_a6_proc_1 - u_a3
       - 1000 y_a3_proc_1 >= -2516
 c298: K_a3_a6 + K_a6_a3 = 1
 c299: u_a3 + K_a6_a3 - 1258 m_a3_proc_2 - 1258 m_a6_proc_2 - u_a6
       - 907 y_a6_proc_2 >= -2516
 c300: u_a3 + K_a6_a3 - 1258 m_a3_proc_1 - 1258 m_a6_proc_1 - u_a6
       - 955 y_a6_proc_1 >= -2516
 c301: K_a3_a6 + K_a6_a3 = 1
 c302: u_a7 + K_a3_a7 - 1258 m_a3_proc_2 - 1258 m_a7_proc_2 - u_a3
       - 448 y_a3_proc_2 >= -2516
 c303: u_a7 + K_a3_a7 - 1258 m_a3_proc_1 - 1258 m_a7_proc_1 - u_a3
       - 1000 y_a3_proc_1 >= -2516
 c304: K_a3_a7 + K_a7_a3 = 1
 c305: u_a3 + K_a7_a3 - 1258 m_a3_proc_2 - 1258 m_a7_proc_2 - u_a7
       - 740 y_a7_proc_2 >= -2516
 c306: u_a3 + K_a7_a3 - 1258 m_a3_proc_1 - 1258 m_a7_proc_1 - u_a7
       - 848 y_a7_proc_1 >= -2516
 c307: K_a3_a7 + K_a7_a3 = 1
 c308: u_a8 + K_a3_a8 - 1258 m_a3_proc_1 - 1258 m_a8_proc_1 - u_a3
       - 1000 y_a3_proc_1 >= -2516
 c309: K_a3_a8 + K_a8_a3 = 1
 c310: u_a3 + K_a8_a3 - 1258 m_a3_proc_1 - 1258 m_a8_proc_1 - u_a8
       - 789 y_a8_proc_1 >= -2516
 c311: K_a3_a8 + K_a8_a3 = 1
 c312: u_a9 + K_a3_a9 - 1258 m_a3_proc_2 - 1258 m_a9_proc_2 - u_a3
       - 448 y_a3_proc_2 >= -2516
 c313: u_a9 + K_a3_a9 - 1258 m_a3_proc_1 - 1258 m_a9_proc_1 - u_a3
       - 1000 y_a3_proc_1 >= -2516
 c314: K_a3_a9 + K_a9_a3 = 1
 c315: u_a3 + K_a9_a3 - 1258 m_a3_proc_2 - 1258 m_a9_proc_2 - u_a9
       - 575 y_a9_proc_2 >= -2516
 c316: u_a3 + K_a9_a3 - 1258 m_a3_proc_1 - 1258 m_a9_proc_1 - u_a9
       - 420 y_a9_proc_1 >= -2516
 c317: K_a3_a9 + K_a9_a3 = 1
 c318: u_a5 + K_a4_a5 - 1258 m_a4_proc_2 - 1258 m_a5_proc_2 - u_a4
       - 1063 y_a4_proc_2 >= -2516
 c319: u_a5 + K_a4_a5 - 1258 m_a4_proc_0 - 1258 m_a5_proc_0 - u_a4
       - 873 y_a4_proc_0 >= -2516
 c320: u_a5 + K_a4_a5 - 1258 m_a4_proc_1 - 1258 m_a5_proc_1 - u_a4
       - 1041 y_a4_proc_1 >= -2516
 c321: K_a4_a5 + K_a5_a4 = 1
 c322: u_a4 + K_a5_a4 - 1258 m_a4_proc_2 - 1258 m_a5_proc_2 - u_a5
       - 763 y_a5_proc_2 >= -2516
 c323: u_a4 + K_a5_a4 - 1258 m_a4_proc_0 - 1258 m_a5_proc_0 - u_a5
       - 898 y_a5_proc_0 >= -2516
 c324: u_a4 + K_a5_a4 - 1258 m_a4_proc_1 - 1258 m_a5_proc_1 - u_a5
       - 737 y_a5_proc_1 >= -2516
 c325: K_a4_a5 + K_a5_a4 = 1
 c326: u_a6 + K_a4_a6 - 1258 m_a4_proc_2 - 1258 m_a6_proc_2 - u_a4
       - 1063 y_a4_proc_2 >= -2516
 c327: u_a6 + K_a4_a6 - 1258 m_a4_proc_0 - 1258 m_a6_proc_0 - u_a4
       - 873 y_a4_proc_0 >= -2516
 c328: u_a6 + K_a4_a6 - 1258 m_a4_proc_1 - 1258 m_a6_proc_1 - u_a4
       - 1041 y_a4_proc_1 >= -2516
 c329: K_a4_a6 + K_a6_a4 = 1
 c330: u_a4 + K_a6_a4 - 1258 m_a4_proc_2 - 1258 m_a6_proc_2 - u_a6
       - 907 y_a6_proc_2 >= -2516
 c331: u_a4 + K_a6_a4 - 1258 m_a4_proc_0 - 1258 m_a6_proc_0 - u_a6
       - 527 y_a6_proc_0 >= -2516
 c332: u_a4 + K_a6_a4 - 1258 m_a4_proc_1 - 1258 m_a6_proc_1 - u_a6
       - 955 y_a6_proc_1 >= -2516
 c333: K_a4_a6 + K_a6_a4 = 1
 c334: u_a7 + K_a4_a7 - 1258 m_a4_proc_2 - 1258 m_a7_proc_2 - u_a4
       - 1063 y_a4_proc_2 >= -2516
 c335: u_a7 + K_a4_a7 - 1258 m_a4_proc_0 - 1258 m_a7_proc_0 - u_a4
       - 873 y_a4_proc_0 >= -2516
 c336: u_a7 + K_a4_a7 - 1258 m_a4_proc_1 - 1258 m_a7_proc_1 - u_a4
       - 1041 y_a4_proc_1 >= -2516
 c337: K_a4_a7 + K_a7_a4 = 1
 c338: u_a4 + K_a7_a4 - 1258 m_a4_proc_2 - 1258 m_a7_proc_2 - u_a7
       - 740 y_a7_proc_2 >= -2516
 c339: u_a4 + K_a7_a4 - 1258 m_a4_proc_0 - 1258 m_a7_proc_0 - u_a7
       - 702 y_a7_proc_0 >= -2516
 c340: u_a4 + K_a7_a4 - 1258 m_a4_proc_1 - 1258 m_a7_proc_1 - u_a7
       - 848 y_a7_proc_1 >= -2516
 c341: K_a4_a7 + K_a7_a4 = 1
 c342: u_a8 + K_a4_a8 - 1258 m_a4_proc_0 - 1258 m_a8_proc_0 - u_a4
       - 873 y_a4_proc_0 >= -2516
 c343: u_a8 + K_a4_a8 - 1258 m_a4_proc_1 - 1258 m_a8_proc_1 - u_a4
       - 1041 y_a4_proc_1 >= -2516
 c344: K_a4_a8 + K_a8_a4 = 1
 c345: u_a4 + K_a8_a4 - 1258 m_a4_proc_0 - 1258 m_a8_proc_0 - u_a8
       - 734 y_a8_proc_0 >= -2516
 c346: u_a4 + K_a8_a4 - 1258 m_a4_proc_1 - 1258 m_a8_proc_1 - u_a8
       - 789 y_a8_proc_1 >= -2516
 c347: K_a4_a8 + K_a8_a4 = 1
 c348: u_a9 + K_a4_a9 - 1258 m_a4_proc_2 - 1258 m_a9_proc_2 - u_a4
       - 1063 y_a4_proc_2 >= -2516
 c349: u_a9 + K_a4_a9 - 1258 m_a4_proc_0 - 1258 m_a9_proc_0 - u_a4
       - 873 y_a4_proc_0 >= -2516
 c350: u_a9 + K_a4_a9 - 1258 m_a4_proc_1 - 1258 m_a9_proc_1 - u_a4
       - 1041 y_a4_proc_1 >= -2516
 c351: K_a4_a9 + K_a9_a4 = 1
 c352: u_a4 + K_a9_a4 - 1258 m_a4_proc_2 - 1258 m_a9_proc_2 - u_a9
       - 575 y_a9_proc_2 >= -2516
 c353: u_a4 + K_a9_a4 - 1258 m_a4_proc_0 - 1258 m_a9_proc_0 - u_a9
       - 1192 y_a9_proc_0 >= -2516
 c354: u_a4 + K_a9_a4 - 1258 m_a4_proc_1 - 1258 m_a9_proc_1 - u_a9
       - 420 y_a9_proc_1 >= -2516
 c355: K_a4_a9 + K_a9_a4 = 1
 c356: u_a6 + K_a5_a6 - 1258 m_a5_proc_2 - 1258 m_a6_proc_2 - u_a5
       - 763 y_a5_proc_2 >= -2516
 c357: u_a6 + K_a5_a6 - 1258 m_a5_proc_0 - 1258 m_a6_proc_0 - u_a5
       - 898 y_a5_proc_0 >= -2516
 c358: u_a6 + K_a5_a6 - 1258 m_a5_proc_1 - 1258 m_a6_proc_1 - u_a5
       - 737 y_a5_proc_1 >= -2516
 c359: K_a5_a6 + K_a6_a5 = 1
 c360: u_a5 + K_a6_a5 - 1258 m_a5_proc_2 - 1258 m_a6_proc_2 - u_a6
       - 907 y_a6_proc_2 >= -2516
 c361: u_a5 + K_a6_a5 - 1258 m_a5_proc_0 - 1258 m_a6_proc_0 - u_a6
       - 527 y_a6_proc_0 >= -2516
 c362: u_a5 + K_a6_a5 - 1258 m_a5_proc_1 - 1258 m_a6_proc_1 - u_a6
       - 955 y_a6_proc_1 >= -2516
 c363: K_a5_a6 + K_a6_a5 = 1
 c364: u_a7 + K_a5_a7 - 1258 m_a5_proc_2 - 1258 m_a7_proc_2 - u_a5
       - 763 y_a5_proc_2 >= -2516
 c365: u_a7 + K_a5_a7 - 1258 m_a5_proc_0 - 1258 m_a7_proc_0 - u_a5
       - 898 y_a5_proc_0 >= -2516
 c366: u_a7 + K_a5_a7 - 1258 m_a5_proc_1 - 1258 m_a7_proc_1 - u_a5
       - 737 y_a5_proc_1 >= -2516
 c367: K_a5_a7 + K_a7_a5 = 1
 c368: u_a5 + K_a7_a5 - 1258 m_a5_proc_2 - 1258 m_a7_proc_2 - u_a7
       - 740 y_a7_proc_2 >= -2516
 c369: u_a5 + K_a7_a5 - 1258 m_a5_proc_0 - 1258 m_a7_proc_0 - u_a7
       - 702 y_a7_proc_0 >= -2516
 c370: u_a5 + K_a7_a5 - 1258 m_a5_proc_1 - 1258 m_a7_proc_1 - u_a7
       - 848 y_a7_proc_1 >= -2516
 c371: K_a5_a7 + K_a7_a5 = 1
 c372: u_a8 + K_a5_a8 - 1258 m_a5_proc_0 - 1258 m_a8_proc_0 - u_a5
       - 898 y_a5_proc_0 >= -2516
 c373: u_a8 + K_a5_a8 - 1258 m_a5_proc_1 - 1258 m_a8_proc_1 - u_a5
       - 737 y_a5_proc_1 >= -2516
 c374: K_a5_a8 + K_a8_a5 = 1
 c375: u_a5 + K_a8_a5 - 1258 m_a5_proc_0 - 1258 m_a8_proc_0 - u_a8
       - 734 y_a8_proc_0 >= -2516
 c376: u_a5 + K_a8_a5 - 1258 m_a5_proc_1 - 1258 m_a8_proc_1 - u_a8
       - 789 y_a8_proc_1 >= -2516
 c377: K_a5_a8 + K_a8_a5 = 1
 c378: u_a9 + K_a5_a9 - 1258 m_a5_proc_2 - 1258 m_a9_proc_2 - u_a5
       - 763 y_a5_proc_2 >= -2516
 c379: u_a9 + K_a5_a9 - 1258 m_a5_proc_0 - 1258 m_a9_proc_0 - u_a5
       - 898 y_a5_proc_0 >= -2516
 c380: u_a9 + K_a5_a9 - 1258 m_a5_proc_1 - 1258 m_a9_proc_1 - u_a5
       - 737 y_a5_proc_1 >= -2516
 c381: K_a5_a9 + K_a9_a5 = 1
 c382: u_a5 + K_a9_a5 - 1258 m_a5_proc_2 - 1258 m_a9_proc_2 - u_a9
       - 575 y_a9_proc_2 >= -2516
 c383: u_a5 + K_a9_a5 - 1258 m_a5_proc_0 - 1258 m_a9_proc_0 - u_a9
       - 1192 y_a9_proc_0 >= -2516
 c384: u_a5 + K_a9_a5 - 1258 m_a5_proc_1 - 1258 m_a9_proc_1 - u_a9
       - 420 y_a9_proc_1 >= -2516
 c385: K_a5_a9 + K_a9_a5 = 1
 c386: u_a7 + K_a6_a7 - 1258 m_a6_proc_2 - 1258 m_a7_proc_2 - u_a6
       - 907 y_a6_proc_2 >= -2516
 c387: u_a7 + K_a6_a7 - 1258 m_a6_proc_0 - 1258 m_a7_proc_0 - u_a6
       - 527 y_a6_proc_0 >= -2516
 c388: u_a7 + K_a6_a7 - 1258 m_a6_proc_1 - 1258 m_a7_proc_1 - u_a6
       - 955 y_a6_proc_1 >= -2516
 c389: K_a6_a7 + K_a7_a6 = 1
 c390: u_a6 + K_a7_a6 - 1258 m_a6_proc_2 - 1258 m_a7_proc_2 - u_a7
       - 740 y_a7_proc_2 >= -2516
 c391: u_a6 + K_a7_a6 - 1258 m_a6_proc_0 - 1258 m_a7_proc_0 - u_a7
       - 702 y_a7_proc_0 >= -2516
 c392: u_a6 + K_a7_a6 - 1258 m_a6_proc_1 - 1258 m_a7_proc_1 - u_a7
       - 848 y_a7_proc_1 >= -2516
 c393: K_a6_a7 + K_a7_a6 = 1
 c394: u_a8 + K_a6_a8 - 1258 m_a6_proc_0 - 1258 m_a8_proc_0 - u_a6
       - 527 y_a6_proc_0 >= -2516
 c395: u_a8 + K_a6_a8 - 1258 m_a6_proc_1 - 1258 m_a8_proc_1 - u_a6
       - 955 y_a6_proc_1 >= -2516
 c396: K_a6_a8 + K_a8_a6 = 1
 c397: u_a6 + K_a8_a6 - 1258 m_a6_proc_0 - 1258 m_a8_proc_0 - u_a8
       - 734 y_a8_proc_0 >= -2516
 c398: u_a6 + K_a8_a6 - 1258 m_a6_proc_1 - 1258 m_a8_proc_1 - u_a8
       - 789 y_a8_proc_1 >= -2516
 c399: K_a6_a8 + K_a8_a6 = 1
 c400: u_a9 + K_a6_a9 - 1258 m_a6_proc_2 - 1258 m_a9_proc_2 - u_a6
       - 907 y_a6_proc_2 >= -2516
 c401: u_a9 + K_a6_a9 - 1258 m_a6_proc_0 - 1258 m_a9_proc_0 - u_a6
       - 527 y_a6_proc_0 >= -2516
 c402: u_a9 + K_a6_a9 - 1258 m_a6_proc_1 - 1258 m_a9_proc_1 - u_a6
       - 955 y_a6_proc_1 >= -2516
 c403: K_a6_a9 + K_a9_a6 = 1
 c404: u_a6 + K_a9_a6 - 1258 m_a6_proc_2 - 1258 m_a9_proc_2 - u_a9
       - 575 y_a9_proc_2 >= -2516
 c405: u_a6 + K_a9_a6 - 1258 m_a6_proc_0 - 1258 m_a9_proc_0 - u_a9
       - 1192 y_a9_proc_0 >= -2516
 c406: u_a6 + K_a9_a6 - 1258 m_a6_proc_1 - 1258 m_a9_proc_1 - u_a9
       - 420 y_a9_proc_1 >= -2516
 c407: K_a6_a9 + K_a9_a6 = 1
 c408: u_a8 + K_a7_a8 - 1258 m_a7_proc_0 - 1258 m_a8_proc_0 - u_a7
       - 702 y_a7_proc_0 >= -2516
 c409: u_a8 + K_a7_a8 - 1258 m_a7_proc_1 - 1258 m_a8_proc_1 - u_a7
       - 848 y_a7_proc_1 >= -2516
 c410: K_a7_a8 + K_a8_a7 = 1
 c411: u_a7 + K_a8_a7 - 1258 m_a7_proc_0 - 1258 m_a8_proc_0 - u_a8
       - 734 y_a8_proc_0 >= -2516
 c412: u_a7 + K_a8_a7 - 1258 m_a7_proc_1 - 1258 m_a8_proc_1 - u_a8
       - 789 y_a8_proc_1 >= -2516
 c413: K_a7_a8 + K_a8_a7 = 1
 c414: u_a9 + K_a7_a9 - 1258 m_a7_proc_2 - 1258 m_a9_proc_2 - u_a7
       - 740 y_a7_proc_2 >= -2516
 c415: u_a9 + K_a7_a9 - 1258 m_a7_proc_0 - 1258 m_a9_proc_0 - u_a7
       - 702 y_a7_proc_0 >= -2516
 c416: u_a9 + K_a7_a9 - 1258 m_a7_proc_1 - 1258 m_a9_proc_1 - u_a7
       - 848 y_a7_proc_1 >= -2516
 c417: K_a7_a9 + K_a9_a7 = 1
 c418: u_a7 + K_a9_a7 - 1258 m_a7_proc_2 - 1258 m_a9_proc_2 - u_a9
       - 575 y_a9_proc_2 >= -2516
 c419: u_a7 + K_a9_a7 - 1258 m_a7_proc_0 - 1258 m_a9_proc_0 - u_a9
       - 1192 y_a9_proc_0 >= -2516
 c420: u_a7 + K_a9_a7 - 1258 m_a7_proc_1 - 1258 m_a9_proc_1 - u_a9
       - 420 y_a9_proc_1 >= -2516
 c421: K_a7_a9 + K_a9_a7 = 1
 c422: u_a9 + K_a8_a9 - 1258 m_a8_proc_0 - 1258 m_a9_proc_0 - u_a8
       - 734 y_a8_proc_0 >= -2516
 c423: u_a9 + K_a8_a9 - 1258 m_a8_proc_1 - 1258 m_a9_proc_1 - u_a8
       - 789 y_a8_proc_1 >= -2516
 c424: K_a8_a9 + K_a9_a8 = 1
 c425: u_a8 + K_a9_a8 - 1258 m_a8_proc_0 - 1258 m_a9_proc_0 - u_a9
       - 1192 y_a9_proc_0 >= -2516
 c426: u_a8 + K_a9_a8 - 1258 m_a8_proc_1 - 1258 m_a9_proc_1 - u_a9
       - 420 y_a9_proc_1 >= -2516
 c427: K_a8_a9 + K_a9_a8 = 1

Bounds
       K_a0_a1 Free
       K_a0_a2 Free
       K_a0_a3 Free
       K_a0_a4 Free
       K_a0_a5 Free
       K_a0_a6 Free
       K_a0_a7 Free
       K_a0_a8 Free
       K_a0_a9 Free
       K_a1_a0 Free
       K_a1_a2 Free
       K_a1_a3 Free
       K_a1_a4 Free
       K_a1_a5 Free
       K_a1_a6 Free
       K_a1_a7 Free
       K_a1_a8 Free
       K_a1_a9 Free
       K_a2_a0 Free
       K_a2_a1 Free
       K_a2_a3 Free
       K_a2_a4 Free
       K_a2_a5 Free
       K_a2_a6 Free
       K_a2_a7 Free
       K_a2_a8 Free
       K_a2_a9 Free
       K_a3_a0 Free
       K_a3_a1 Free
       K_a3_a2 Free
       K_a3_a4 Free
       K_a3_a5 Free
       K_a3_a6 Free
       K_a3_a7 Free
       K_a3_a8 Free
       K_a3_a9 Free
       K_a4_a0 Free
       K_a4_a1 Free
       K_a4_a2 Free
       K_a4_a3 Free
       K_a4_a5 Free
       K_a4_a6 Free
       K_a4_a7 Free
       K_a4_a8 Free
       K_a4_a9 Free
       K_a5_a0 Free
       K_a5_a1 Free
       K_a5_a2 Free
       K_a5_a3 Free
       K_a5_a4 Free
       K_a5_a6 Free
       K_a5_a7 Free
       K_a5_a8 Free
       K_a5_a9 Free
       K_a6_a0 Free
       K_a6_a1 Free
       K_a6_a2 Free
       K_a6_a3 Free
       K_a6_a4 Free
       K_a6_a5 Free
       K_a6_a7 Free
       K_a6_a8 Free
       K_a6_a9 Free
       K_a7_a0 Free
       K_a7_a1 Free
       K_a7_a2 Free
       K_a7_a3 Free
       K_a7_a4 Free
       K_a7_a5 Free
       K_a7_a6 Free
       K_a7_a8 Free
       K_a7_a9 Free
       K_a8_a0 Free
       K_a8_a1 Free
       K_a8_a2 Free
       K_a8_a3 Free
       K_a8_a4 Free
       K_a8_a5 Free
       K_a8_a6 Free
       K_a8_a7 Free
       K_a8_a9 Free
       K_a9_a0 Free
       K_a9_a1 Free
       K_a9_a2 Free
       K_a9_a3 Free
       K_a9_a4 Free
       K_a9_a5 Free
       K_a9_a6 Free
       K_a9_a7 Free
       K_a9_a8 Free
 0 <= m_a0_proc_0 <= 1
 0 <= m_a0_proc_1 <= 1
 0 <= m_a0_proc_2 <= 1
 0 <= m_a1_proc_0 <= 1
 0 <= m_a1_proc_1 <= 1
 0 <= m_a1_proc_2 <= 1
 0 <= m_a2_proc_0 <= 1
 0 <= m_a2_proc_1 <= 1
 0 <= m_a2_proc_2 <= 1
 0 <= m_a3_proc_1 <= 1
 0 <= m_a3_proc_2 <= 1
 0 <= m_a4_proc_0 <= 1
 0 <= m_a4_proc_1 <= 1
 0 <= m_a4_proc_2 <= 1
 0 <= m_a5_proc_0 <= 1
 0 <= m_a5_proc_1 <= 1
 0 <= m_a5_proc_2 <= 1
 0 <= m_a6_proc_0 <= 1
 0 <= m_a6_proc_1 <= 1
 0 <= m_a6_proc_2 <= 1
 0 <= m_a7_proc_0 <= 1
 0 <= m_a7_proc_1 <= 1
 0 <= m_a7_proc_2 <= 1
 0 <= m_a8_proc_0 <= 1
 0 <= m_a8_proc_1 <= 1
 0 <= m_a9_proc_0 <= 1
 0 <= m_a9_proc_1 <= 1
 0 <= m_a9_proc_2 <= 1

Binaries
 m_a0_proc_0 m_a0_proc_1 m_a0_proc_2 m_a1_proc_0 m_a1_proc_1 m_a1_proc_2
 m_a2_proc_0 m_a2_proc_1 m_a2_proc_2 m_a3_proc_1 m_a3_proc_2 m_a4_proc_0
 m_a4_proc_1 m_a4_proc_2 m_a5_proc_0 m_a5_proc_1 m_a5_proc_2 m_a6_proc_0
 m_a6_proc_1 m_a6_proc_2 m_a7_proc_0 m_a7_proc_1 m_a7_proc_2 m_a8_proc_0
 m_a8_proc_1 m_a9_proc_0 m_a9_proc_1 m_a9_proc_2

Generals
 K_a0_a1 K_a0_a2 K_a0_a3 K_a0_a4 K_a0_a5 K_a0_a6 K_a0_a7 K_a0_a8 K_a0_a9 K_a1_a0
 K_a1_a2 K_a1_a3 K_a1_a4 K_a1_a5 K_a1_a6 K_a1_a7 K_a1_a8 K_a1_a9 K_a2_a0 K_a2_a1
 K_a2_a3 K_a2_a4 K_a2_a5 K_a2_a6 K_a2_a7 K_a2_a8 K_a2_a9 K_a3_a0 K_a3_a1 K_a3_a2
 K_a3_a4 K_a3_a5 K_a3_a6 K_a3_a7 K_a3_a8 K_a3_a9 K_a4_a0 K_a4_a1 K_a4_a2 K_a4_a3
 K_a4_a5 K_a4_a6 K_a4_a7 K_a4_a8 K_a4_a9 K_a5_a0 K_a5_a1 K_a5_a2 K_a5_a3 K_a5_a4
 K_a5_a6 K_a5_a7 K_a5_a8 K_a5_a9 K_a6_a0 K_a6_a1 K_a6_a2 K_a6_a3 K_a6_a4 K_a6_a5
 K_a6_a7 K_a6_a8 K_a6_a9 K_a7_a0 K_a7_a1 K_a7_a2 K_a7_a3 K_a7_a4 K_a7_a5 K_a7_a6
 K_a7_a8 K_a7_a9 K_a8_a0 K_a8_a1 K_a8_a2 K_a8_a3 K_a8_a4 K_a8_a5 K_a8_a6 K_a8_a7
 K_a8_a9 K_a9_a0 K_a9_a1 K_a9_a2 K_a9_a3 K_a9_a4 K_a9_a5 K_a9_a6 K_a9_a7 K_a9_a8
End
