benchmark/results/graph__10-1000-0.10-03_11/graph__10-1000-0.10-03_11_Quinton_Monolithic.txt
solution for: Quinton Monolithic
objective: 0.000367923
status: OPTIMAL_SOLUTION(2)
u_a0=0.165
u_a1=0.547
u_a2=0.727
u_a4=0.189
u_a5=1.000
u_a6=1.330
u_a7=0.728
u_a8=1.730
u_a9=0.573
tau=0.000
K_a0_a1=1258
K_a0_a2=1257
K_a0_a3=1
K_a0_a4=1258
K_a0_a5=1257
K_a0_a6=1257
K_a0_a8=1257
K_a0_a9=1258
K_a1_a0=-1257
K_a1_a2=1258
K_a1_a3=1
K_a1_a4=-1257
K_a1_a8=-1
K_a1_a9=1
K_a2_a0=-1256
K_a2_a1=-1257
K_a2_a3=1
K_a2_a4=1
K_a2_a5=1258
K_a2_a6=1258
K_a2_a7=1258
K_a2_a8=1257
K_a2_a9=1
K_a3_a4=1
K_a3_a5=1258
K_a3_a6=1
K_a3_a8=-2517
K_a3_a9=1
K_a4_a0=-1257
K_a4_a1=1258
K_a4_a5=1257
K_a4_a6=1257
K_a4_a7=1258
K_a4_a8=-1
K_a5_a0=-1256
K_a5_a1=1
K_a5_a2=-1257
K_a5_a3=-1257
K_a5_a4=-1256
K_a5_a7=1
K_a5_a9=1
K_a6_a0=-1256
K_a6_a1=1
K_a6_a2=-1257
K_a6_a4=-1256
K_a6_a5=1
K_a6_a7=1
K_a6_a9=1
K_a7_a0=1
K_a7_a1=1
K_a7_a2=-1257
K_a7_a3=1
K_a7_a4=-1257
K_a7_a8=-1259
K_a7_a9=1
K_a8_a0=-1256
K_a8_a1=2
K_a8_a2=-1256
K_a8_a3=2518
K_a8_a4=2
K_a8_a5=1
K_a8_a6=1
K_a8_a7=1260
K_a8_a9=1
K_a9_a0=-1257
K_a9_a4=1
m_a0_proc_2=1
m_a1_proc_0=1
m_a2_proc_1=1
m_a3_proc_2=1
m_a4_proc_1=1
m_a5_proc_0=1
m_a6_proc_0=1
m_a7_proc_2=1
m_a8_proc_0=1
m_a9_proc_1=1
y_a0_proc_2=0.000
y_a1_proc_0=0.000
y_a2_proc_1=0.000
y_a3_proc_2=0.000
y_a4_proc_1=0.000
y_a5_proc_0=0.000
y_a6_proc_0=0.000
y_a7_proc_2=0.000
y_a8_proc_0=0.000
y_a9_proc_0=0.000
y_a9_proc_1=0.000
